qbf_easy_train/easy_3727_UNSAT.qdimacs
p cnf 48 144
a 34 43 12 0
e 1 2 3 4 5 6 7 8 9 10 11 13 14 15 16 17 18 19 20 21 22 23 24 25 26 27 28 29 30 31 32 33 35 36 37 38 39 40 41 42 44 45 46 47 48 0
3 1 0
3 -2 0
-1 2 -3 0
5 -4 0
5 -2 0
4 2 -5 0
3 5 -6 0
-3 -5 -6 0
3 -5 6 0
-3 5 6 0
7 2 0
7 -1 0
-2 1 -7 0
-8 7 0
-8 -1 0
-7 1 8 0
9 8 0
9 4 0
-8 -4 -9 0
10 -6 0
10 -9 0
6 9 -10 0
-12 11 0
-12 4 0
-11 -4 12 0
13 -12 0
13 12 0
-14 -10 0
-14 -13 0
10 13 14 0
17 15 0
17 16 0
-15 -16 -17 0
18 14 0
18 -17 0
-14 17 -18 0
-20 -19 0
-20 -4 0
19 4 20 0
-21 -4 0
-21 -20 0
4 20 21 0
22 21 0
22 -16 0
-21 16 -22 0
23 18 0
23 -22 0
-18 22 -23 0
24 -4 0
24 20 0
4 -20 -24 0
-25 -7 0
-25 -2 0
7 2 25 0
-26 25 0
-26 21 0
-25 -21 26 0
-27 -24 0
-27 26 0
24 -26 27 0
-28 -1 0
-28 -19 0
1 19 28 0
12 28 -29 0
-12 -28 -29 0
12 -28 29 0
-12 28 29 0
-30 -25 0
-30 -29 0
25 29 30 0
-30 -12 -31 0
30 12 -31 0
-30 12 31 0
30 -12 31 0
27 -31 -32 0
-27 31 -32 0
27 31 32 0
-27 -31 32 0
34 5 0
34 -30 0
-5 30 -34 0
-19 34 -35 0
19 -34 -35 0
-19 -34 35 0
19 34 35 0
-33 35 -36 0
33 -35 -36 0
-33 -35 36 0
33 35 36 0
-11 -2 -37 0
11 2 -37 0
-11 2 37 0
11 -2 37 0
-21 30 -38 0
21 -30 -38 0
-21 -30 38 0
21 30 38 0
39 37 0
39 -38 0
-37 38 -39 0
-40 36 0
-40 -39 0
-36 39 40 0
-41 32 0
-41 -40 0
-32 40 41 0
-28 -8 -42 0
28 8 -42 0
-28 8 42 0
28 -8 42 0
-42 -16 -43 0
42 16 -43 0
-42 16 43 0
42 -16 43 0
44 11 0
44 -29 0
-11 29 -44 0
45 21 0
45 -44 0
-21 44 -45 0
43 45 -46 0
-43 -45 -46 0
43 -45 46 0
-43 45 46 0
47 41 0
47 46 0
-41 -46 -47 0
48 -23 0
48 47 0
23 -47 -48 0
46 -5 26 11 17 0
19 9 -41 18 -24 0
-38 -20 -1 26 25 15 0
-29 -47 -22 0
35 -40 -4 -7 -13 -6 0
32 -16 -21 -11 -25 -13 3 0
-32 9 -23 -39 8 0
-19 -36 7 -1 -20 -44 0
-15 13 8 26 -11 -21 14 0
-20 5 24 0
-1 17 -22 -25 36 0
12 -34 11 -9 1 6 0
13 32 16 -4 -19 -41 21 0
48 0
