sat_easy_train/easy_3727_UNSAT.dimacs
p cnf 125 421
-4 -2 0
-4 -3 0
2 3 4 0
6 -4 0
6 5 0
4 -5 -6 0
-1 -6 -7 0
1 6 -7 0
-1 6 7 0
1 -6 7 0
8 7 0
8 6 0
-7 -6 -8 0
-11 10 0
-11 10 0
-10 11 0
-12 -9 0
-12 11 0
9 -11 12 0
13 -8 0
13 12 0
8 -12 -13 0
15 11 0
15 -14 0
-11 14 -15 0
-1 16 -17 0
1 -16 -17 0
-1 -16 17 0
1 16 17 0
17 -10 -18 0
-17 10 -18 0
17 10 18 0
-17 -10 18 0
-15 18 -19 0
15 -18 -19 0
-15 -18 19 0
15 18 19 0
22 -20 0
22 -21 0
20 21 -22 0
-24 -14 0
-24 23 0
14 -23 24 0
-24 9 -25 0
24 -9 -25 0
-24 -9 25 0
24 9 25 0
25 17 -26 0
-25 -17 -26 0
25 -17 26 0
-25 17 26 0
-22 -26 -27 0
22 26 -27 0
-22 26 27 0
22 -26 27 0
17 -22 -28 0
-17 22 -28 0
17 22 28 0
-17 -22 28 0
-30 -29 0
-30 -24 0
29 24 30 0
-28 -30 -31 0
28 30 -31 0
-28 30 31 0
28 -30 31 0
-31 -32 -33 0
31 32 -33 0
-31 32 33 0
31 -32 33 0
34 -27 0
34 33 0
27 -33 -34 0
35 19 0
35 34 0
-19 -34 -35 0
-36 -23 0
-36 15 0
23 -15 36 0
37 -28 0
37 3 0
28 -3 -37 0
38 36 0
38 -37 0
-36 37 -38 0
-5 8 -39 0
5 -8 -39 0
-5 -8 39 0
5 8 39 0
2 -9 -40 0
-2 9 -40 0
2 9 40 0
-2 -9 40 0
-39 -40 -41 0
39 40 -41 0
-39 40 41 0
39 -40 41 0
-42 1 0
-42 -22 0
-1 22 42 0
-43 36 0
-43 42 0
-36 -42 43 0
-12 -25 -45 0
12 25 -45 0
-12 25 45 0
12 -25 45 0
-46 44 0
-46 45 0
-44 -45 46 0
-43 -46 -47 0
43 46 -47 0
-43 46 47 0
43 -46 47 0
48 16 0
48 4 0
-16 -4 -48 0
2 -49 -50 0
-2 49 -50 0
2 49 50 0
-2 -49 50 0
51 50 0
51 32 0
-50 -32 -51 0
-53 -51 0
-53 52 0
51 -52 53 0
54 -16 0
54 53 0
16 -53 -54 0
-55 48 0
-55 54 0
-48 -54 55 0
56 -14 0
56 -10 0
14 10 -56 0
57 55 0
57 -56 0
-55 56 -57 0
25 -5 -58 0
-25 5 -58 0
25 5 58 0
-25 -5 58 0
59 -9 0
59 -49 0
9 49 -59 0
-59 -9 -60 0
59 9 -60 0
-59 9 60 0
59 -9 60 0
-61 -58 0
-61 60 0
58 -60 61 0
-9 4 -62 0
9 -4 -62 0
-9 -4 62 0
9 4 62 0
61 -62 -63 0
-61 62 -63 0
61 62 63 0
-61 -62 63 0
64 -50 0
64 50 0
65 -64 0
65 -49 0
64 49 -65 0
66 52 0
66 -11 0
-52 11 -66 0
-66 16 -67 0
66 -16 -67 0
-66 -16 67 0
66 16 67 0
-65 -67 -68 0
65 67 -68 0
-65 67 68 0
65 -67 68 0
-69 29 0
-69 -26 0
-29 26 69 0
-70 -68 0
-70 -69 0
68 69 70 0
-71 63 0
-71 -70 0
-63 70 71 0
72 57 0
72 -71 0
-57 71 -72 0
-73 -4 0
-73 -24 0
4 24 73 0
-74 -73 0
-74 20 0
73 -20 74 0
72 -74 -75 0
-72 74 -75 0
72 74 75 0
-72 -74 75 0
-47 -75 -76 0
47 75 -76 0
-47 75 76 0
47 -75 76 0
77 41 0
77 76 0
-41 -76 -77 0
78 -38 0
78 77 0
38 -77 -78 0
79 -22 0
79 66 0
22 -66 -79 0
-79 25 -80 0
79 -25 -80 0
-79 -25 80 0
79 25 80 0
-81 15 0
-81 22 0
-15 -22 81 0
81 -4 -82 0
-81 4 -82 0
81 4 82 0
-81 -4 82 0
83 -8 0
83 -82 0
8 82 -83 0
-84 -30 0
-84 -4 0
30 4 84 0
-85 -83 0
-85 -84 0
83 84 85 0
86 80 0
86 85 0
-80 -85 -86 0
-87 78 0
-87 -86 0
-78 86 87 0
88 -35 0
88 -87 0
35 87 -88 0
-89 -13 0
-89 -88 0
13 88 89 0
-90 30 0
-90 25 0
-30 -25 90 0
-91 -18 0
-91 52 0
18 -52 91 0
-91 -49 -92 0
91 49 -92 0
-91 49 92 0
91 -49 92 0
-93 92 0
-93 -28 0
-92 28 93 0
11 93 -94 0
-11 -93 -94 0
11 -93 94 0
-11 93 94 0
-95 3 0
-95 11 0
-3 -11 95 0
-96 -59 0
-96 36 0
59 -36 96 0
-97 96 0
-97 22 0
-96 -22 97 0
95 -97 -98 0
-95 97 -98 0
95 97 98 0
-95 -97 98 0
99 -68 0
99 -59 0
68 59 -99 0
-100 98 0
-100 -99 0
-98 99 100 0
-18 -21 -101 0
18 21 -101 0
-18 21 101 0
18 -21 101 0
50 101 -102 0
-50 -101 -102 0
50 -101 102 0
-50 101 102 0
103 67 0
103 -102 0
-67 102 -103 0
-104 -91 0
-104 103 0
91 -103 104 0
-3 50 -105 0
3 -50 -105 0
-3 -50 105 0
3 50 105 0
106 105 0
106 1 0
-105 -1 -106 0
-104 106 -107 0
104 -106 -107 0
-104 -106 107 0
104 106 107 0
-58 -26 -108 0
58 26 -108 0
-58 26 108 0
58 -26 108 0
-109 53 0
-109 108 0
-53 -108 109 0
-110 61 0
-110 50 0
-61 -50 110 0
111 -31 0
111 110 0
31 -110 -111 0
112 109 0
112 111 0
-109 -111 -112 0
113 -107 0
113 -112 0
107 112 -113 0
-6 5 -114 0
6 -5 -114 0
-6 -5 114 0
6 5 114 0
113 -114 -115 0
-113 114 -115 0
113 114 115 0
-113 -114 115 0
116 100 0
116 -115 0
-100 115 -116 0
11 -3 -117 0
-11 3 -117 0
11 3 117 0
-11 -3 117 0
-118 92 0
-118 -66 0
-92 66 118 0
119 50 0
119 91 0
-50 -91 -119 0
-120 118 0
-120 -119 0
-118 119 120 0
-117 120 -121 0
117 -120 -121 0
-117 -120 121 0
117 120 121 0
-122 116 0
-122 121 0
-116 -121 122 0
123 -94 0
123 122 0
94 -122 -123 0
-90 -123 -124 0
90 123 -124 0
-90 123 124 0
90 -123 124 0
-125 -89 0
-125 124 0
89 -124 125 0
31 85 -44 -27 26 15 0
-19 -113 24 -103 0
-38 34 -66 0
-55 -44 -75 5 0
-74 -87 12 0
23 93 0
-26 68 99 -109 -73 0
-33 -74 107 0
-62 106 114 -65 -99 -78 0
80 -88 81 0
-70 -34 0
-68 55 -28 -115 0
92 -24 0
-12 -115 0
109 -68 -59 22 -21 0
-87 -69 -72 86 123 0
13 36 0
-90 112 0
31 -2 71 -42 -27 -51 0
38 46 -3 0
-85 -57 51 19 0
-22 -88 -25 107 0
24 -14 3 26 -8 90 0
63 -26 -87 124 2 0
53 95 0
73 63 93 -91 123 -1 0
-62 9 -104 -123 0
-123 9 20 74 0
-28 -57 -53 -20 113 0
-89 107 32 -44 6 15 0
-45 13 80 0
-72 86 50 0
-120 -50 73 -34 4 0
-57 52 106 -32 -24 -62 0
84 -79 -69 -24 0
-111 87 0
79 52 60 0
-75 6 -23 -8 81 0
64 93 6 -46 -62 -108 0
13 -62 56 0
65 106 0
-27 33 20 -92 0
-74 -30 106 0
-36 37 0
108 -71 -74 0
-80 73 -15 3 0
49 -93 22 0
-113 -15 64 33 101 35 0
38 -112 27 107 -13 35 0
-116 -26 120 0
-66 37 40 0
-58 63 61 -49 -40 -93 0
-69 42 -94 115 0
-18 122 -123 -1 116 55 0
19 37 -28 112 0
125 0
